benchmarks/bfuzz0/346242135170281171628222207119498073.smt2
(set-logic QF_FP)
(declare-const x0 (_ FloatingPoint 11 53))
(declare-const x1 (_ FloatingPoint 11 53))
(declare-const x2 (_ FloatingPoint 11 53))
(declare-const x3 (_ FloatingPoint 11 53))
(declare-const x4 (_ FloatingPoint 11 53))
(declare-const x5 (_ FloatingPoint 11 53))
(declare-const x6 (_ FloatingPoint 11 53))
(declare-const x7 (_ FloatingPoint 11 53))
(declare-const x8 (_ FloatingPoint 11 53))
(assert (fp.gt (fp.div RNE x2 x0) (fp.add RNE x1 x3)))
(assert (fp.lt (fp.neg x7) (fp.mul RNE x1 x6)))
(assert (fp.gt (fp.sub RNE x4 x2) (fp.sub RNE x2 x2)))
(assert (fp.lt (fp.add RNE x8 x7) (fp.add RNE x5 x5)))
(assert (fp.gt (fp.mul RNE x3 x2) (fp.neg x6)))
(assert (fp.gt (fp.neg x6) (fp.div RNE x5 x5)))
(assert (fp.leq (fp.mul RNE x8 x5) (fp.sub RNE x1 x4)))
(assert (fp.eq (fp.mul RNE x4 x2) (fp.add RNE x8 x6)))
(assert (fp.leq (fp.neg x3) (fp.neg x8)))
(assert (fp.geq (fp.mul RNE x4 x7) (fp.add RNE x2 x7)))
(assert (fp.gt (fp.add RNE x3 x8) (fp.div RNE x6 x0)))
(assert (fp.geq (fp.add RNE x0 x7) (fp.neg x2)))
(assert (fp.gt (fp.div RNE x4 x0) (fp.sub RNE x4 x3)))
(assert (fp.eq (fp.neg x2) (fp.add RNE x5 x1)))
(assert (fp.gt (fp.sub RNE x1 x1) (fp.sub RNE x6 x6)))
(assert (fp.lt (fp.add RNE x4 x5) (fp.mul RNE x8 x1)))
(assert (fp.leq (fp.neg x3) (fp.sub RNE x0 x2)))
(assert (fp.lt (fp.div RNE x7 x5) (fp.div RNE x2 x2)))
(assert (fp.eq (fp.add RNE x8 x6) (fp.sub RNE x2 x1)))
(check-sat)
