db/data/346242135170281171628222207119498073.z3.out
unsat
-------------------
648.032601603
